solution status: optimal solution found
objective value:                                   22
x43                                                 1 	(obj:1)
x45                                                 1 	(obj:1)
x47                                                 1 	(obj:1)
x57                                                 1 	(obj:1)
x58                                                 1 	(obj:1)
x59                                                 1 	(obj:1)
x61                                                 1 	(obj:1)
x62                                                 1 	(obj:1)
x68                                                 1 	(obj:1)
x69                                                 1 	(obj:1)
x71                                                 1 	(obj:1)
x72                                                 1 	(obj:1)
x73                                                 1 	(obj:1)
x83                                                 1 	(obj:1)
x89                                                 1 	(obj:1)
x91                                                 1 	(obj:1)
x93                                                 1 	(obj:1)
x96                                                 1 	(obj:1)
x97                                                 1 	(obj:1)
x98                                                 1 	(obj:1)
x99                                                 1 	(obj:1)
x100                                                1 	(obj:1)
one.pinholes[3].hole_out_b_y                        9 	(obj:0)
one.pinholes[3].hole_out_b_z                       17 	(obj:0)
one.pinholes[1].hole_out_b_y                       16 	(obj:0)
one.pinholes[1].hole_out_b_z                       13 	(obj:0)
one.ctrl_a[8].flush_y                               5 	(obj:0)
one.ctrl_a[8].flush_z                              13 	(obj:0)
one.ctrl_a[8].hole_y                               12 	(obj:0)
one.ctrl_a[8].hole_z                                7 	(obj:0)
one.thingy.devices[0].thingy.v11_y                   16 	(obj:0)
one.thingy.devices[0].thingy.v11_z                   12 	(obj:0)
one.ctrl_a[7].flush_y                               3 	(obj:0)
one.ctrl_a[7].flush_z                              11 	(obj:0)
one.thingy.devices[0].thingy.v10_y                   14 	(obj:0)
one.thingy.devices[0].thingy.v10_z                   15 	(obj:0)
one.thingy.devices[3].thingy.v11_y                    6 	(obj:0)
one.thingy.devices[3].thingy.v11_z                   16 	(obj:0)
one.ctrl_a[9].flush_y                               2 	(obj:0)
one.ctrl_a[9].flush_z                              12 	(obj:0)
one.ctrl_a[7].hole_y                               10 	(obj:0)
one.ctrl_a[7].hole_z                                9 	(obj:0)
one.thingy.devices[1].thingy.v11_y                   13 	(obj:0)
one.thingy.devices[1].thingy.v11_z                   15 	(obj:0)
one.thingy.devices[2].thingy.v10_y                    9 	(obj:0)
one.thingy.devices[2].thingy.v10_z                   15 	(obj:0)
one.ctrl_a[9].hole_y                               12 	(obj:0)
one.ctrl_a[9].hole_z                               11 	(obj:0)
one.pinholes[0].hole_out_b_y                       16 	(obj:0)
one.pinholes[0].hole_out_b_z                       11 	(obj:0)
one.thingy.devices[1].thingy.v10_y                   12 	(obj:0)
one.thingy.devices[1].thingy.v10_z                   14 	(obj:0)
one.thingy.devices[3].thingy.v10_y                    6 	(obj:0)
one.thingy.devices[3].thingy.v10_z                   15 	(obj:0)
one.thingy.devices[2].thingy.v11_y                   10 	(obj:0)
one.thingy.devices[2].thingy.v11_z                   16 	(obj:0)
